c Standarized MaxSat Instance
c{
c "sha1sum": "d8e6730bc92f8833ba407ac16cb54dd379f3b92d",
c "nvars": 672,
c "ncls": 3076,
c "total_lits": 6000,
c "nhards": 2404,
c "nhard_nlits": 5328,
c "nhard_len_stats":
c    { "min": 2,
c      "max": 8,
c      "ave": 2.2163,
c      "stddev": 1.0573 },
c "nsofts": 672,
c "nsoft_nlits": 672,
c "nsoft_len_stats":
c    { "min": 1,
c      "max": 1,
c      "ave": 1.0000,
c      "stddev": 0.0000 },
c "nsoft_wts": 1,
c "soft_wt_stats":
c    { "min": 1,
c      "max": 1,
c      "ave": 1.0000,
c      "stddev": 0.0000 }
c}
c------------------------------------------------------------
c Output of pmcnf2wcnf by jpms@ecs.soton.ac.uk
c 
1 -1 0
1 -2 0
1 -3 0
1 -4 0
1 -5 0
1 -6 0
1 -7 0
1 -8 0
1 -9 0
1 -10 0
1 -11 0
1 -12 0
1 -13 0
1 -14 0
1 -15 0
1 -16 0
1 -17 0
1 -18 0
1 -19 0
1 -20 0
1 -21 0
1 -22 0
1 -23 0
1 -24 0
1 -25 0
1 -26 0
1 -27 0
1 -28 0
1 -29 0
1 -30 0
1 -31 0
1 -32 0
1 -33 0
1 -34 0
1 -35 0
1 -36 0
1 -37 0
1 -38 0
1 -39 0
1 -40 0
1 -41 0
1 -42 0
1 -43 0
1 -44 0
1 -45 0
1 -46 0
1 -47 0
1 -48 0
1 -49 0
1 -50 0
1 -51 0
1 -52 0
1 -53 0
1 -54 0
1 -55 0
1 -56 0
1 -57 0
1 -58 0
1 -59 0
1 -60 0
1 -61 0
1 -62 0
1 -63 0
1 -64 0
1 -65 0
1 -66 0
1 -67 0
1 -68 0
1 -69 0
1 -70 0
1 -71 0
1 -72 0
1 -73 0
1 -74 0
1 -75 0
1 -76 0
1 -77 0
1 -78 0
1 -79 0
1 -80 0
1 -81 0
1 -82 0
1 -83 0
1 -84 0
1 -85 0
1 -86 0
1 -87 0
1 -88 0
1 -89 0
1 -90 0
1 -91 0
1 -92 0
1 -93 0
1 -94 0
1 -95 0
1 -96 0
1 -97 0
1 -98 0
1 -99 0
1 -100 0
1 -101 0
1 -102 0
1 -103 0
1 -104 0
1 -105 0
1 -106 0
1 -107 0
1 -108 0
1 -109 0
1 -110 0
1 -111 0
1 -112 0
1 -113 0
1 -114 0
1 -115 0
1 -116 0
1 -117 0
1 -118 0
1 -119 0
1 -120 0
1 -121 0
1 -122 0
1 -123 0
1 -124 0
1 -125 0
1 -126 0
1 -127 0
1 -128 0
1 -129 0
1 -130 0
1 -131 0
1 -132 0
1 -133 0
1 -134 0
1 -135 0
1 -136 0
1 -137 0
1 -138 0
1 -139 0
1 -140 0
1 -141 0
1 -142 0
1 -143 0
1 -144 0
1 -145 0
1 -146 0
1 -147 0
1 -148 0
1 -149 0
1 -150 0
1 -151 0
1 -152 0
1 -153 0
1 -154 0
1 -155 0
1 -156 0
1 -157 0
1 -158 0
1 -159 0
1 -160 0
1 -161 0
1 -162 0
1 -163 0
1 -164 0
1 -165 0
1 -166 0
1 -167 0
1 -168 0
1 -169 0
1 -170 0
1 -171 0
1 -172 0
1 -173 0
1 -174 0
1 -175 0
1 -176 0
1 -177 0
1 -178 0
1 -179 0
1 -180 0
1 -181 0
1 -182 0
1 -183 0
1 -184 0
1 -185 0
1 -186 0
1 -187 0
1 -188 0
1 -189 0
1 -190 0
1 -191 0
1 -192 0
1 -193 0
1 -194 0
1 -195 0
1 -196 0
1 -197 0
1 -198 0
1 -199 0
1 -200 0
1 -201 0
1 -202 0
1 -203 0
1 -204 0
1 -205 0
1 -206 0
1 -207 0
1 -208 0
1 -209 0
1 -210 0
1 -211 0
1 -212 0
1 -213 0
1 -214 0
1 -215 0
1 -216 0
1 -217 0
1 -218 0
1 -219 0
1 -220 0
1 -221 0
1 -222 0
1 -223 0
1 -224 0
1 -225 0
1 -226 0
1 -227 0
1 -228 0
1 -229 0
1 -230 0
1 -231 0
1 -232 0
1 -233 0
1 -234 0
1 -235 0
1 -236 0
1 -237 0
1 -238 0
1 -239 0
1 -240 0
1 -241 0
1 -242 0
1 -243 0
1 -244 0
1 -245 0
1 -246 0
1 -247 0
1 -248 0
1 -249 0
1 -250 0
1 -251 0
1 -252 0
1 -253 0
1 -254 0
1 -255 0
1 -256 0
1 -257 0
1 -258 0
1 -259 0
1 -260 0
1 -261 0
1 -262 0
1 -263 0
1 -264 0
1 -265 0
1 -266 0
1 -267 0
1 -268 0
1 -269 0
1 -270 0
1 -271 0
1 -272 0
1 -273 0
1 -274 0
1 -275 0
1 -276 0
1 -277 0
1 -278 0
1 -279 0
1 -280 0
1 -281 0
1 -282 0
1 -283 0
1 -284 0
1 -285 0
1 -286 0
1 -287 0
1 -288 0
1 -289 0
1 -290 0
1 -291 0
1 -292 0
1 -293 0
1 -294 0
1 -295 0
1 -296 0
1 -297 0
1 -298 0
1 -299 0
1 -300 0
1 -301 0
1 -302 0
1 -303 0
1 -304 0
1 -305 0
1 -306 0
1 -307 0
1 -308 0
1 -309 0
1 -310 0
1 -311 0
1 -312 0
1 -313 0
1 -314 0
1 -315 0
1 -316 0
1 -317 0
1 -318 0
1 -319 0
1 -320 0
1 -321 0
1 -322 0
1 -323 0
1 -324 0
1 -325 0
1 -326 0
1 -327 0
1 -328 0
1 -329 0
1 -330 0
1 -331 0
1 -332 0
1 -333 0
1 -334 0
1 -335 0
1 -336 0
1 -337 0
1 -338 0
1 -339 0
1 -340 0
1 -341 0
1 -342 0
1 -343 0
1 -344 0
1 -345 0
1 -346 0
1 -347 0
1 -348 0
1 -349 0
1 -350 0
1 -351 0
1 -352 0
1 -353 0
1 -354 0
1 -355 0
1 -356 0
1 -357 0
1 -358 0
1 -359 0
1 -360 0
1 -361 0
1 -362 0
1 -363 0
1 -364 0
1 -365 0
1 -366 0
1 -367 0
1 -368 0
1 -369 0
1 -370 0
1 -371 0
1 -372 0
1 -373 0
1 -374 0
1 -375 0
1 -376 0
1 -377 0
1 -378 0
1 -379 0
1 -380 0
1 -381 0
1 -382 0
1 -383 0
1 -384 0
1 -385 0
1 -386 0
1 -387 0
1 -388 0
1 -389 0
1 -390 0
1 -391 0
1 -392 0
1 -393 0
1 -394 0
1 -395 0
1 -396 0
1 -397 0
1 -398 0
1 -399 0
1 -400 0
1 -401 0
1 -402 0
1 -403 0
1 -404 0
1 -405 0
1 -406 0
1 -407 0
1 -408 0
1 -409 0
1 -410 0
1 -411 0
1 -412 0
1 -413 0
1 -414 0
1 -415 0
1 -416 0
1 -417 0
1 -418 0
1 -419 0
1 -420 0
1 -421 0
1 -422 0
1 -423 0
1 -424 0
1 -425 0
1 -426 0
1 -427 0
1 -428 0
1 -429 0
1 -430 0
1 -431 0
1 -432 0
1 -433 0
1 -434 0
1 -435 0
1 -436 0
1 -437 0
1 -438 0
1 -439 0
1 -440 0
1 -441 0
1 -442 0
1 -443 0
1 -444 0
1 -445 0
1 -446 0
1 -447 0
1 -448 0
1 -449 0
1 -450 0
1 -451 0
1 -452 0
1 -453 0
1 -454 0
1 -455 0
1 -456 0
1 -457 0
1 -458 0
1 -459 0
1 -460 0
1 -461 0
1 -462 0
1 -463 0
1 -464 0
1 -465 0
1 -466 0
1 -467 0
1 -468 0
1 -469 0
1 -470 0
1 -471 0
1 -472 0
1 -473 0
1 -474 0
1 -475 0
1 -476 0
1 -477 0
1 -478 0
1 -479 0
1 -480 0
1 -481 0
1 -482 0
1 -483 0
1 -484 0
1 -485 0
1 -486 0
1 -487 0
1 -488 0
1 -489 0
1 -490 0
1 -491 0
1 -492 0
1 -493 0
1 -494 0
1 -495 0
1 -496 0
1 -497 0
1 -498 0
1 -499 0
1 -500 0
1 -501 0
1 -502 0
1 -503 0
1 -504 0
1 -505 0
1 -506 0
1 -507 0
1 -508 0
1 -509 0
1 -510 0
1 -511 0
1 -512 0
1 -513 0
1 -514 0
1 -515 0
1 -516 0
1 -517 0
1 -518 0
1 -519 0
1 -520 0
1 -521 0
1 -522 0
1 -523 0
1 -524 0
1 -525 0
1 -526 0
1 -527 0
1 -528 0
1 -529 0
1 -530 0
1 -531 0
1 -532 0
1 -533 0
1 -534 0
1 -535 0
1 -536 0
1 -537 0
1 -538 0
1 -539 0
1 -540 0
1 -541 0
1 -542 0
1 -543 0
1 -544 0
1 -545 0
1 -546 0
1 -547 0
1 -548 0
1 -549 0
1 -550 0
1 -551 0
1 -552 0
1 -553 0
1 -554 0
1 -555 0
1 -556 0
1 -557 0
1 -558 0
1 -559 0
1 -560 0
1 -561 0
1 -562 0
1 -563 0
1 -564 0
1 -565 0
1 -566 0
1 -567 0
1 -568 0
1 -569 0
1 -570 0
1 -571 0
1 -572 0
1 -573 0
1 -574 0
1 -575 0
1 -576 0
1 -577 0
1 -578 0
1 -579 0
1 -580 0
1 -581 0
1 -582 0
1 -583 0
1 -584 0
1 -585 0
1 -586 0
1 -587 0
1 -588 0
1 -589 0
1 -590 0
1 -591 0
1 -592 0
1 -593 0
1 -594 0
1 -595 0
1 -596 0
1 -597 0
1 -598 0
1 -599 0
1 -600 0
1 -601 0
1 -602 0
1 -603 0
1 -604 0
1 -605 0
1 -606 0
1 -607 0
1 -608 0
1 -609 0
1 -610 0
1 -611 0
1 -612 0
1 -613 0
1 -614 0
1 -615 0
1 -616 0
1 -617 0
1 -618 0
1 -619 0
1 -620 0
1 -621 0
1 -622 0
1 -623 0
1 -624 0
1 -625 0
1 -626 0
1 -627 0
1 -628 0
1 -629 0
1 -630 0
1 -631 0
1 -632 0
1 -633 0
1 -634 0
1 -635 0
1 -636 0
1 -637 0
1 -638 0
1 -639 0
1 -640 0
1 -641 0
1 -642 0
1 -643 0
1 -644 0
1 -645 0
1 -646 0
1 -647 0
1 -648 0
1 -649 0
1 -650 0
1 -651 0
1 -652 0
1 -653 0
1 -654 0
1 -655 0
1 -656 0
1 -657 0
1 -658 0
1 -659 0
1 -660 0
1 -661 0
1 -662 0
1 -663 0
1 -664 0
1 -665 0
1 -666 0
1 -667 0
1 -668 0
1 -669 0
1 -670 0
1 -671 0
1 -672 0
h 1 3 0
h 5 7 0
h 9 11 0
h 13 15 0
h 17 19 0
h 21 23 0
h 25 27 0
h 29 31 0
h 33 35 0
h 37 39 0
h 41 43 0
h 45 47 0
h 49 51 0
h 53 55 0
h 57 59 0
h 61 63 0
h 65 67 0
h 69 71 0
h 73 75 0
h 77 79 0
h 81 83 0
h 85 87 0
h 89 91 0
h 93 95 0
h 97 99 0
h 101 103 0
h 105 107 0
h 109 111 0
h 113 115 0
h 117 119 0
h 121 123 0
h 125 127 0
h 129 131 0
h 133 135 0
h 137 139 0
h 141 143 0
h 145 147 0
h 149 151 0
h 153 155 0
h 157 159 0
h 161 163 0
h 165 167 0
h 169 171 0
h 173 175 0
h 177 179 0
h 181 183 0
h 185 187 0
h 189 191 0
h 4 6 12 14 20 24 26 30 0
h 36 38 44 46 52 56 58 62 0
h 68 70 76 78 84 88 90 94 0
h 100 102 108 110 116 120 122 126 0
h 132 134 140 142 148 152 154 158 0
h 164 166 172 174 180 184 186 190 0
h 2 6 12 14 20 22 28 30 0
h 34 38 44 46 52 54 60 62 0
h 66 70 76 78 84 86 92 94 0
h 98 102 108 110 116 118 124 126 0
h 130 134 140 142 148 150 156 158 0
h 162 166 172 174 180 182 188 190 0
h 2 6 10 16 18 24 26 30 0
h 34 38 42 48 50 56 58 62 0
h 66 70 74 80 82 88 90 94 0
h 98 102 106 112 114 120 122 126 0
h 130 134 138 144 146 152 154 158 0
h 162 166 170 176 178 184 186 190 0
h 4 6 10 16 18 24 28 30 0
h 36 38 42 48 50 56 60 62 0
h 68 70 74 80 82 88 92 94 0
h 100 102 106 112 114 120 124 126 0
h 132 134 138 144 146 152 156 158 0
h 164 166 170 176 178 184 188 190 0
h 2 6 10 16 20 24 26 30 0
h 34 38 42 48 52 56 58 62 0
h 66 70 74 80 84 88 90 94 0
h 98 102 106 112 116 120 122 126 0
h 130 134 138 144 148 152 154 158 0
h 162 166 170 176 180 184 186 190 0
h 4 6 10 14 20 24 26 30 0
h 36 38 42 46 52 56 58 62 0
h 68 70 74 78 84 88 90 94 0
h 100 102 106 110 116 120 122 126 0
h 132 134 138 142 148 152 154 158 0
h 164 166 170 174 180 184 186 190 0
h 4 6 10 16 20 22 26 30 0
h 36 38 42 48 52 54 58 62 0
h 68 70 74 80 84 86 90 94 0
h 100 102 106 112 116 118 122 126 0
h 132 134 138 144 148 150 154 158 0
h 164 166 170 176 180 182 186 190 0
h 4 6 10 16 20 22 26 30 0
h 36 38 42 48 52 54 58 62 0
h 68 70 74 80 84 86 90 94 0
h 100 102 106 112 116 118 122 126 0
h 132 134 138 144 148 150 154 158 0
h 164 166 170 176 180 182 186 190 0
h 4 6 12 14 20 24 28 30 0
h 36 38 44 46 52 56 60 62 0
h 68 70 76 78 84 88 92 94 0
h 100 102 108 110 116 120 124 126 0
h 132 134 140 142 148 152 156 158 0
h 164 166 172 174 180 184 188 190 0
h 4 6 12 14 20 22 26 30 0
h 36 38 44 46 52 54 58 62 0
h 68 70 76 78 84 86 90 94 0
h 100 102 108 110 116 118 122 126 0
h 132 134 140 142 148 150 154 158 0
h 164 166 172 174 180 182 186 190 0
h 1 194 0
h 5 194 0
h 11 194 0
h 13 194 0
h 17 194 0
h 21 194 0
h 25 194 0
h 31 194 0
h 33 196 0
h 37 196 0
h 43 196 0
h 45 196 0
h 49 196 0
h 53 196 0
h 57 196 0
h 63 196 0
h 65 198 0
h 69 198 0
h 75 198 0
h 77 198 0
h 81 198 0
h 85 198 0
h 89 198 0
h 95 198 0
h 97 200 0
h 101 200 0
h 107 200 0
h 109 200 0
h 113 200 0
h 117 200 0
h 121 200 0
h 127 200 0
h 129 202 0
h 133 202 0
h 139 202 0
h 141 202 0
h 145 202 0
h 149 202 0
h 153 202 0
h 159 202 0
h 161 204 0
h 165 204 0
h 171 204 0
h 173 204 0
h 177 204 0
h 181 204 0
h 185 204 0
h 191 204 0
h 1 206 0
h 7 206 0
h 9 206 0
h 13 206 0
h 17 206 0
h 23 206 0
h 27 206 0
h 29 206 0
h 33 208 0
h 39 208 0
h 41 208 0
h 45 208 0
h 49 208 0
h 55 208 0
h 59 208 0
h 61 208 0
h 65 210 0
h 71 210 0
h 73 210 0
h 77 210 0
h 81 210 0
h 87 210 0
h 91 210 0
h 93 210 0
h 97 212 0
h 103 212 0
h 105 212 0
h 109 212 0
h 113 212 0
h 119 212 0
h 123 212 0
h 125 212 0
h 129 214 0
h 135 214 0
h 137 214 0
h 141 214 0
h 145 214 0
h 151 214 0
h 155 214 0
h 157 214 0
h 161 216 0
h 167 216 0
h 169 216 0
h 173 216 0
h 177 216 0
h 183 216 0
h 187 216 0
h 189 216 0
h 3 218 0
h 7 218 0
h 11 218 0
h 15 218 0
h 17 218 0
h 21 218 0
h 27 218 0
h 31 218 0
h 35 220 0
h 39 220 0
h 43 220 0
h 47 220 0
h 49 220 0
h 53 220 0
h 59 220 0
h 63 220 0
h 67 222 0
h 71 222 0
h 75 222 0
h 79 222 0
h 81 222 0
h 85 222 0
h 91 222 0
h 95 222 0
h 99 224 0
h 103 224 0
h 107 224 0
h 111 224 0
h 113 224 0
h 117 224 0
h 123 224 0
h 127 224 0
h 131 226 0
h 135 226 0
h 139 226 0
h 143 226 0
h 145 226 0
h 149 226 0
h 155 226 0
h 159 226 0
h 163 228 0
h 167 228 0
h 171 228 0
h 175 228 0
h 177 228 0
h 181 228 0
h 187 228 0
h 191 228 0
h 3 230 0
h 7 230 0
h 11 230 0
h 13 230 0
h 19 230 0
h 23 230 0
h 25 230 0
h 31 230 0
h 35 232 0
h 39 232 0
h 43 232 0
h 45 232 0
h 51 232 0
h 55 232 0
h 57 232 0
h 63 232 0
h 67 234 0
h 71 234 0
h 75 234 0
h 77 234 0
h 83 234 0
h 87 234 0
h 89 234 0
h 95 234 0
h 99 236 0
h 103 236 0
h 107 236 0
h 109 236 0
h 115 236 0
h 119 236 0
h 121 236 0
h 127 236 0
h 131 238 0
h 135 238 0
h 139 238 0
h 141 238 0
h 147 238 0
h 151 238 0
h 153 238 0
h 159 238 0
h 163 240 0
h 167 240 0
h 171 240 0
h 173 240 0
h 179 240 0
h 183 240 0
h 185 240 0
h 191 240 0
h 3 242 0
h 7 242 0
h 11 242 0
h 15 242 0
h 19 242 0
h 21 242 0
h 25 242 0
h 29 242 0
h 35 244 0
h 39 244 0
h 43 244 0
h 47 244 0
h 51 244 0
h 53 244 0
h 57 244 0
h 61 244 0
h 67 246 0
h 71 246 0
h 75 246 0
h 79 246 0
h 83 246 0
h 85 246 0
h 89 246 0
h 93 246 0
h 99 248 0
h 103 248 0
h 107 248 0
h 111 248 0
h 115 248 0
h 117 248 0
h 121 248 0
h 125 248 0
h 131 250 0
h 135 250 0
h 139 250 0
h 143 250 0
h 147 250 0
h 149 250 0
h 153 250 0
h 157 250 0
h 163 252 0
h 167 252 0
h 171 252 0
h 175 252 0
h 179 252 0
h 181 252 0
h 185 252 0
h 189 252 0
h 3 254 0
h 7 254 0
h 11 254 0
h 15 254 0
h 17 254 0
h 21 254 0
h 27 254 0
h 31 254 0
h 35 256 0
h 39 256 0
h 43 256 0
h 47 256 0
h 49 256 0
h 53 256 0
h 59 256 0
h 63 256 0
h 67 258 0
h 71 258 0
h 75 258 0
h 79 258 0
h 81 258 0
h 85 258 0
h 91 258 0
h 95 258 0
h 99 260 0
h 103 260 0
h 107 260 0
h 111 260 0
h 113 260 0
h 117 260 0
h 123 260 0
h 127 260 0
h 131 262 0
h 135 262 0
h 139 262 0
h 143 262 0
h 145 262 0
h 149 262 0
h 155 262 0
h 159 262 0
h 163 264 0
h 167 264 0
h 171 264 0
h 175 264 0
h 177 264 0
h 181 264 0
h 187 264 0
h 191 264 0
h 1 266 0
h 7 266 0
h 9 266 0
h 15 266 0
h 19 266 0
h 21 266 0
h 25 266 0
h 29 266 0
h 33 268 0
h 39 268 0
h 41 268 0
h 47 268 0
h 51 268 0
h 53 268 0
h 57 268 0
h 61 268 0
h 65 270 0
h 71 270 0
h 73 270 0
h 79 270 0
h 83 270 0
h 85 270 0
h 89 270 0
h 93 270 0
h 97 272 0
h 103 272 0
h 105 272 0
h 111 272 0
h 115 272 0
h 117 272 0
h 121 272 0
h 125 272 0
h 129 274 0
h 135 274 0
h 137 274 0
h 143 274 0
h 147 274 0
h 149 274 0
h 153 274 0
h 157 274 0
h 161 276 0
h 167 276 0
h 169 276 0
h 175 276 0
h 179 276 0
h 181 276 0
h 185 276 0
h 189 276 0
h 3 278 0
h 7 278 0
h 9 278 0
h 13 278 0
h 17 278 0
h 21 278 0
h 27 278 0
h 31 278 0
h 35 280 0
h 39 280 0
h 41 280 0
h 45 280 0
h 49 280 0
h 53 280 0
h 59 280 0
h 63 280 0
h 67 282 0
h 71 282 0
h 73 282 0
h 77 282 0
h 81 282 0
h 85 282 0
h 91 282 0
h 95 282 0
h 99 284 0
h 103 284 0
h 105 284 0
h 109 284 0
h 113 284 0
h 117 284 0
h 123 284 0
h 127 284 0
h 131 286 0
h 135 286 0
h 137 286 0
h 141 286 0
h 145 286 0
h 149 286 0
h 155 286 0
h 159 286 0
h 163 288 0
h 167 288 0
h 169 288 0
h 173 288 0
h 177 288 0
h 181 288 0
h 187 288 0
h 191 288 0
h 1 290 0
h 7 290 0
h 11 290 0
h 13 290 0
h 17 290 0
h 21 290 0
h 27 290 0
h 29 290 0
h 33 292 0
h 39 292 0
h 43 292 0
h 45 292 0
h 49 292 0
h 53 292 0
h 59 292 0
h 61 292 0
h 65 294 0
h 71 294 0
h 75 294 0
h 77 294 0
h 81 294 0
h 85 294 0
h 91 294 0
h 93 294 0
h 97 296 0
h 103 296 0
h 107 296 0
h 109 296 0
h 113 296 0
h 117 296 0
h 123 296 0
h 125 296 0
h 129 298 0
h 135 298 0
h 139 298 0
h 141 298 0
h 145 298 0
h 149 298 0
h 155 298 0
h 157 298 0
h 161 300 0
h 167 300 0
h 171 300 0
h 173 300 0
h 177 300 0
h 181 300 0
h 187 300 0
h 189 300 0
h 3 302 0
h 7 302 0
h 11 302 0
h 13 302 0
h 17 302 0
h 23 302 0
h 25 302 0
h 31 302 0
h 35 304 0
h 39 304 0
h 43 304 0
h 45 304 0
h 49 304 0
h 55 304 0
h 57 304 0
h 63 304 0
h 67 306 0
h 71 306 0
h 75 306 0
h 77 306 0
h 81 306 0
h 87 306 0
h 89 306 0
h 95 306 0
h 99 308 0
h 103 308 0
h 107 308 0
h 109 308 0
h 113 308 0
h 119 308 0
h 121 308 0
h 127 308 0
h 131 310 0
h 135 310 0
h 139 310 0
h 141 310 0
h 145 310 0
h 151 310 0
h 153 310 0
h 159 310 0
h 163 312 0
h 167 312 0
h 171 312 0
h 173 312 0
h 177 312 0
h 183 312 0
h 185 312 0
h 191 312 0
h 1 314 0
h 7 314 0
h 9 314 0
h 13 314 0
h 17 314 0
h 23 314 0
h 25 314 0
h 31 314 0
h 33 316 0
h 39 316 0
h 41 316 0
h 45 316 0
h 49 316 0
h 55 316 0
h 57 316 0
h 63 316 0
h 65 318 0
h 71 318 0
h 73 318 0
h 77 318 0
h 81 318 0
h 87 318 0
h 89 318 0
h 95 318 0
h 97 320 0
h 103 320 0
h 105 320 0
h 109 320 0
h 113 320 0
h 119 320 0
h 121 320 0
h 127 320 0
h 129 322 0
h 135 322 0
h 137 322 0
h 141 322 0
h 145 322 0
h 151 322 0
h 153 322 0
h 159 322 0
h 161 324 0
h 167 324 0
h 169 324 0
h 173 324 0
h 177 324 0
h 183 324 0
h 185 324 0
h 191 324 0
h 3 326 0
h 5 326 0
h 9 326 0
h 15 326 0
h 19 326 0
h 23 326 0
h 27 326 0
h 31 326 0
h 35 328 0
h 37 328 0
h 41 328 0
h 47 328 0
h 51 328 0
h 55 328 0
h 59 328 0
h 63 328 0
h 67 330 0
h 69 330 0
h 73 330 0
h 79 330 0
h 83 330 0
h 87 330 0
h 91 330 0
h 95 330 0
h 99 332 0
h 101 332 0
h 105 332 0
h 111 332 0
h 115 332 0
h 119 332 0
h 123 332 0
h 127 332 0
h 131 334 0
h 133 334 0
h 137 334 0
h 143 334 0
h 147 334 0
h 151 334 0
h 155 334 0
h 159 334 0
h 163 336 0
h 165 336 0
h 169 336 0
h 175 336 0
h 179 336 0
h 183 336 0
h 187 336 0
h 191 336 0
h 3 338 0
h 7 338 0
h 9 338 0
h 13 338 0
h 17 338 0
h 23 338 0
h 27 338 0
h 31 338 0
h 35 340 0
h 39 340 0
h 41 340 0
h 45 340 0
h 49 340 0
h 55 340 0
h 59 340 0
h 63 340 0
h 67 342 0
h 71 342 0
h 73 342 0
h 77 342 0
h 81 342 0
h 87 342 0
h 91 342 0
h 95 342 0
h 99 344 0
h 103 344 0
h 105 344 0
h 109 344 0
h 113 344 0
h 119 344 0
h 123 344 0
h 127 344 0
h 131 346 0
h 135 346 0
h 137 346 0
h 141 346 0
h 145 346 0
h 151 346 0
h 155 346 0
h 159 346 0
h 163 348 0
h 167 348 0
h 169 348 0
h 173 348 0
h 177 348 0
h 183 348 0
h 187 348 0
h 191 348 0
h 3 350 0
h 7 350 0
h 9 350 0
h 15 350 0
h 19 350 0
h 23 350 0
h 25 350 0
h 31 350 0
h 35 352 0
h 39 352 0
h 41 352 0
h 47 352 0
h 51 352 0
h 55 352 0
h 57 352 0
h 63 352 0
h 67 354 0
h 71 354 0
h 73 354 0
h 79 354 0
h 83 354 0
h 87 354 0
h 89 354 0
h 95 354 0
h 99 356 0
h 103 356 0
h 105 356 0
h 111 356 0
h 115 356 0
h 119 356 0
h 121 356 0
h 127 356 0
h 131 358 0
h 135 358 0
h 137 358 0
h 143 358 0
h 147 358 0
h 151 358 0
h 153 358 0
h 159 358 0
h 163 360 0
h 167 360 0
h 169 360 0
h 175 360 0
h 179 360 0
h 183 360 0
h 185 360 0
h 191 360 0
h 3 362 0
h 7 362 0
h 11 362 0
h 13 362 0
h 19 362 0
h 21 362 0
h 25 362 0
h 31 362 0
h 35 364 0
h 39 364 0
h 43 364 0
h 45 364 0
h 51 364 0
h 53 364 0
h 57 364 0
h 63 364 0
h 67 366 0
h 71 366 0
h 75 366 0
h 77 366 0
h 83 366 0
h 85 366 0
h 89 366 0
h 95 366 0
h 99 368 0
h 103 368 0
h 107 368 0
h 109 368 0
h 115 368 0
h 117 368 0
h 121 368 0
h 127 368 0
h 131 370 0
h 135 370 0
h 139 370 0
h 141 370 0
h 147 370 0
h 149 370 0
h 153 370 0
h 159 370 0
h 163 372 0
h 167 372 0
h 171 372 0
h 173 372 0
h 179 372 0
h 181 372 0
h 185 372 0
h 191 372 0
h 1 374 0
h 5 374 0
h 9 374 0
h 13 374 0
h 19 374 0
h 23 374 0
h 27 374 0
h 31 374 0
h 33 376 0
h 37 376 0
h 41 376 0
h 45 376 0
h 51 376 0
h 55 376 0
h 59 376 0
h 63 376 0
h 65 378 0
h 69 378 0
h 73 378 0
h 77 378 0
h 83 378 0
h 87 378 0
h 91 378 0
h 95 378 0
h 97 380 0
h 101 380 0
h 105 380 0
h 109 380 0
h 115 380 0
h 119 380 0
h 123 380 0
h 127 380 0
h 129 382 0
h 133 382 0
h 137 382 0
h 141 382 0
h 147 382 0
h 151 382 0
h 155 382 0
h 159 382 0
h 161 384 0
h 165 384 0
h 169 384 0
h 173 384 0
h 179 384 0
h 183 384 0
h 187 384 0
h 191 384 0
h 1 386 0
h 7 386 0
h 11 386 0
h 15 386 0
h 19 386 0
h 23 386 0
h 25 386 0
h 31 386 0
h 33 388 0
h 39 388 0
h 43 388 0
h 47 388 0
h 51 388 0
h 55 388 0
h 57 388 0
h 63 388 0
h 65 390 0
h 71 390 0
h 75 390 0
h 79 390 0
h 83 390 0
h 87 390 0
h 89 390 0
h 95 390 0
h 97 392 0
h 103 392 0
h 107 392 0
h 111 392 0
h 115 392 0
h 119 392 0
h 121 392 0
h 127 392 0
h 129 394 0
h 135 394 0
h 139 394 0
h 143 394 0
h 147 394 0
h 151 394 0
h 153 394 0
h 159 394 0
h 161 396 0
h 167 396 0
h 171 396 0
h 175 396 0
h 179 396 0
h 183 396 0
h 185 396 0
h 191 396 0
h 3 398 0
h 7 398 0
h 9 398 0
h 15 398 0
h 19 398 0
h 23 398 0
h 25 398 0
h 29 398 0
h 35 400 0
h 39 400 0
h 41 400 0
h 47 400 0
h 51 400 0
h 55 400 0
h 57 400 0
h 61 400 0
h 67 402 0
h 71 402 0
h 73 402 0
h 79 402 0
h 83 402 0
h 87 402 0
h 89 402 0
h 93 402 0
h 99 404 0
h 103 404 0
h 105 404 0
h 111 404 0
h 115 404 0
h 119 404 0
h 121 404 0
h 125 404 0
h 131 406 0
h 135 406 0
h 137 406 0
h 143 406 0
h 147 406 0
h 151 406 0
h 153 406 0
h 157 406 0
h 163 408 0
h 167 408 0
h 169 408 0
h 175 408 0
h 179 408 0
h 183 408 0
h 185 408 0
h 189 408 0
h 3 410 0
h 7 410 0
h 11 410 0
h 15 410 0
h 17 410 0
h 23 410 0
h 25 410 0
h 31 410 0
h 35 412 0
h 39 412 0
h 43 412 0
h 47 412 0
h 49 412 0
h 55 412 0
h 57 412 0
h 63 412 0
h 67 414 0
h 71 414 0
h 75 414 0
h 79 414 0
h 81 414 0
h 87 414 0
h 89 414 0
h 95 414 0
h 99 416 0
h 103 416 0
h 107 416 0
h 111 416 0
h 113 416 0
h 119 416 0
h 121 416 0
h 127 416 0
h 131 418 0
h 135 418 0
h 139 418 0
h 143 418 0
h 145 418 0
h 151 418 0
h 153 418 0
h 159 418 0
h 163 420 0
h 167 420 0
h 171 420 0
h 175 420 0
h 177 420 0
h 183 420 0
h 185 420 0
h 191 420 0
h 3 422 0
h 7 422 0
h 11 422 0
h 15 422 0
h 17 422 0
h 23 422 0
h 27 422 0
h 31 422 0
h 35 424 0
h 39 424 0
h 43 424 0
h 47 424 0
h 49 424 0
h 55 424 0
h 59 424 0
h 63 424 0
h 67 426 0
h 71 426 0
h 75 426 0
h 79 426 0
h 81 426 0
h 87 426 0
h 91 426 0
h 95 426 0
h 99 428 0
h 103 428 0
h 107 428 0
h 111 428 0
h 113 428 0
h 119 428 0
h 123 428 0
h 127 428 0
h 131 430 0
h 135 430 0
h 139 430 0
h 143 430 0
h 145 430 0
h 151 430 0
h 155 430 0
h 159 430 0
h 163 432 0
h 167 432 0
h 171 432 0
h 175 432 0
h 177 432 0
h 183 432 0
h 187 432 0
h 191 432 0
h 3 434 0
h 5 434 0
h 9 434 0
h 13 434 0
h 17 434 0
h 23 434 0
h 25 434 0
h 31 434 0
h 35 436 0
h 37 436 0
h 41 436 0
h 45 436 0
h 49 436 0
h 55 436 0
h 57 436 0
h 63 436 0
h 67 438 0
h 69 438 0
h 73 438 0
h 77 438 0
h 81 438 0
h 87 438 0
h 89 438 0
h 95 438 0
h 99 440 0
h 101 440 0
h 105 440 0
h 109 440 0
h 113 440 0
h 119 440 0
h 121 440 0
h 127 440 0
h 131 442 0
h 133 442 0
h 137 442 0
h 141 442 0
h 145 442 0
h 151 442 0
h 153 442 0
h 159 442 0
h 163 444 0
h 165 444 0
h 169 444 0
h 173 444 0
h 177 444 0
h 183 444 0
h 185 444 0
h 191 444 0
h 1 446 0
h 7 446 0
h 11 446 0
h 13 446 0
h 17 446 0
h 21 446 0
h 27 446 0
h 31 446 0
h 33 448 0
h 39 448 0
h 43 448 0
h 45 448 0
h 49 448 0
h 53 448 0
h 59 448 0
h 63 448 0
h 65 450 0
h 71 450 0
h 75 450 0
h 77 450 0
h 81 450 0
h 85 450 0
h 91 450 0
h 95 450 0
h 97 452 0
h 103 452 0
h 107 452 0
h 109 452 0
h 113 452 0
h 117 452 0
h 123 452 0
h 127 452 0
h 129 454 0
h 135 454 0
h 139 454 0
h 141 454 0
h 145 454 0
h 149 454 0
h 155 454 0
h 159 454 0
h 161 456 0
h 167 456 0
h 171 456 0
h 173 456 0
h 177 456 0
h 181 456 0
h 187 456 0
h 191 456 0
h 1 458 0
h 7 458 0
h 11 458 0
h 15 458 0
h 17 458 0
h 23 458 0
h 25 458 0
h 29 458 0
h 33 460 0
h 39 460 0
h 43 460 0
h 47 460 0
h 49 460 0
h 55 460 0
h 57 460 0
h 61 460 0
h 65 462 0
h 71 462 0
h 75 462 0
h 79 462 0
h 81 462 0
h 87 462 0
h 89 462 0
h 93 462 0
h 97 464 0
h 103 464 0
h 107 464 0
h 111 464 0
h 113 464 0
h 119 464 0
h 121 464 0
h 125 464 0
h 129 466 0
h 135 466 0
h 139 466 0
h 143 466 0
h 145 466 0
h 151 466 0
h 153 466 0
h 157 466 0
h 161 468 0
h 167 468 0
h 171 468 0
h 175 468 0
h 177 468 0
h 183 468 0
h 185 468 0
h 189 468 0
h 1 470 0
h 7 470 0
h 11 470 0
h 15 470 0
h 17 470 0
h 23 470 0
h 25 470 0
h 31 470 0
h 33 472 0
h 39 472 0
h 43 472 0
h 47 472 0
h 49 472 0
h 55 472 0
h 57 472 0
h 63 472 0
h 65 474 0
h 71 474 0
h 75 474 0
h 79 474 0
h 81 474 0
h 87 474 0
h 89 474 0
h 95 474 0
h 97 476 0
h 103 476 0
h 107 476 0
h 111 476 0
h 113 476 0
h 119 476 0
h 121 476 0
h 127 476 0
h 129 478 0
h 135 478 0
h 139 478 0
h 143 478 0
h 145 478 0
h 151 478 0
h 153 478 0
h 159 478 0
h 161 480 0
h 167 480 0
h 171 480 0
h 175 480 0
h 177 480 0
h 183 480 0
h 185 480 0
h 191 480 0
h 1 482 0
h 7 482 0
h 11 482 0
h 15 482 0
h 17 482 0
h 21 482 0
h 25 482 0
h 29 482 0
h 33 484 0
h 39 484 0
h 43 484 0
h 47 484 0
h 49 484 0
h 53 484 0
h 57 484 0
h 61 484 0
h 65 486 0
h 71 486 0
h 75 486 0
h 79 486 0
h 81 486 0
h 85 486 0
h 89 486 0
h 93 486 0
h 97 488 0
h 103 488 0
h 107 488 0
h 111 488 0
h 113 488 0
h 117 488 0
h 121 488 0
h 125 488 0
h 129 490 0
h 135 490 0
h 139 490 0
h 143 490 0
h 145 490 0
h 149 490 0
h 153 490 0
h 157 490 0
h 161 492 0
h 167 492 0
h 171 492 0
h 175 492 0
h 177 492 0
h 181 492 0
h 185 492 0
h 189 492 0
h 3 494 0
h 7 494 0
h 11 494 0
h 13 494 0
h 17 494 0
h 23 494 0
h 25 494 0
h 31 494 0
h 35 496 0
h 39 496 0
h 43 496 0
h 45 496 0
h 49 496 0
h 55 496 0
h 57 496 0
h 63 496 0
h 67 498 0
h 71 498 0
h 75 498 0
h 77 498 0
h 81 498 0
h 87 498 0
h 89 498 0
h 95 498 0
h 99 500 0
h 103 500 0
h 107 500 0
h 109 500 0
h 113 500 0
h 119 500 0
h 121 500 0
h 127 500 0
h 131 502 0
h 135 502 0
h 139 502 0
h 141 502 0
h 145 502 0
h 151 502 0
h 153 502 0
h 159 502 0
h 163 504 0
h 167 504 0
h 171 504 0
h 173 504 0
h 177 504 0
h 183 504 0
h 185 504 0
h 191 504 0
h 1 506 0
h 7 506 0
h 11 506 0
h 13 506 0
h 19 506 0
h 23 506 0
h 27 506 0
h 29 506 0
h 33 508 0
h 39 508 0
h 43 508 0
h 45 508 0
h 51 508 0
h 55 508 0
h 59 508 0
h 61 508 0
h 65 510 0
h 71 510 0
h 75 510 0
h 77 510 0
h 83 510 0
h 87 510 0
h 91 510 0
h 93 510 0
h 97 512 0
h 103 512 0
h 107 512 0
h 109 512 0
h 115 512 0
h 119 512 0
h 123 512 0
h 125 512 0
h 129 514 0
h 135 514 0
h 139 514 0
h 141 514 0
h 147 514 0
h 151 514 0
h 155 514 0
h 157 514 0
h 161 516 0
h 167 516 0
h 171 516 0
h 173 516 0
h 179 516 0
h 183 516 0
h 187 516 0
h 189 516 0
h 3 518 0
h 7 518 0
h 11 518 0
h 13 518 0
h 19 518 0
h 21 518 0
h 25 518 0
h 29 518 0
h 35 520 0
h 39 520 0
h 43 520 0
h 45 520 0
h 51 520 0
h 53 520 0
h 57 520 0
h 61 520 0
h 67 522 0
h 71 522 0
h 75 522 0
h 77 522 0
h 83 522 0
h 85 522 0
h 89 522 0
h 93 522 0
h 99 524 0
h 103 524 0
h 107 524 0
h 109 524 0
h 115 524 0
h 117 524 0
h 121 524 0
h 125 524 0
h 131 526 0
h 135 526 0
h 139 526 0
h 141 526 0
h 147 526 0
h 149 526 0
h 153 526 0
h 157 526 0
h 163 528 0
h 167 528 0
h 171 528 0
h 173 528 0
h 179 528 0
h 181 528 0
h 185 528 0
h 189 528 0
h 1 530 0
h 7 530 0
h 9 530 0
h 13 530 0
h 17 530 0
h 21 530 0
h 27 530 0
h 31 530 0
h 33 532 0
h 39 532 0
h 41 532 0
h 45 532 0
h 49 532 0
h 53 532 0
h 59 532 0
h 63 532 0
h 65 534 0
h 71 534 0
h 73 534 0
h 77 534 0
h 81 534 0
h 85 534 0
h 91 534 0
h 95 534 0
h 97 536 0
h 103 536 0
h 105 536 0
h 109 536 0
h 113 536 0
h 117 536 0
h 123 536 0
h 127 536 0
h 129 538 0
h 135 538 0
h 137 538 0
h 141 538 0
h 145 538 0
h 149 538 0
h 155 538 0
h 159 538 0
h 161 540 0
h 167 540 0
h 169 540 0
h 173 540 0
h 177 540 0
h 181 540 0
h 187 540 0
h 191 540 0
h 3 542 0
h 5 542 0
h 11 542 0
h 15 542 0
h 17 542 0
h 23 542 0
h 25 542 0
h 31 542 0
h 35 544 0
h 37 544 0
h 43 544 0
h 47 544 0
h 49 544 0
h 55 544 0
h 57 544 0
h 63 544 0
h 67 546 0
h 69 546 0
h 75 546 0
h 79 546 0
h 81 546 0
h 87 546 0
h 89 546 0
h 95 546 0
h 99 548 0
h 101 548 0
h 107 548 0
h 111 548 0
h 113 548 0
h 119 548 0
h 121 548 0
h 127 548 0
h 131 550 0
h 133 550 0
h 139 550 0
h 143 550 0
h 145 550 0
h 151 550 0
h 153 550 0
h 159 550 0
h 163 552 0
h 165 552 0
h 171 552 0
h 175 552 0
h 177 552 0
h 183 552 0
h 185 552 0
h 191 552 0
h 1 554 0
h 7 554 0
h 9 554 0
h 13 554 0
h 19 554 0
h 21 554 0
h 27 554 0
h 29 554 0
h 33 556 0
h 39 556 0
h 41 556 0
h 45 556 0
h 51 556 0
h 53 556 0
h 59 556 0
h 61 556 0
h 65 558 0
h 71 558 0
h 73 558 0
h 77 558 0
h 83 558 0
h 85 558 0
h 91 558 0
h 93 558 0
h 97 560 0
h 103 560 0
h 105 560 0
h 109 560 0
h 115 560 0
h 117 560 0
h 123 560 0
h 125 560 0
h 129 562 0
h 135 562 0
h 137 562 0
h 141 562 0
h 147 562 0
h 149 562 0
h 155 562 0
h 157 562 0
h 161 564 0
h 167 564 0
h 169 564 0
h 173 564 0
h 179 564 0
h 181 564 0
h 187 564 0
h 189 564 0
h 1 566 0
h 7 566 0
h 11 566 0
h 15 566 0
h 19 566 0
h 21 566 0
h 27 566 0
h 29 566 0
h 33 568 0
h 39 568 0
h 43 568 0
h 47 568 0
h 51 568 0
h 53 568 0
h 59 568 0
h 61 568 0
h 65 570 0
h 71 570 0
h 75 570 0
h 79 570 0
h 83 570 0
h 85 570 0
h 91 570 0
h 93 570 0
h 97 572 0
h 103 572 0
h 107 572 0
h 111 572 0
h 115 572 0
h 117 572 0
h 123 572 0
h 125 572 0
h 129 574 0
h 135 574 0
h 139 574 0
h 143 574 0
h 147 574 0
h 149 574 0
h 155 574 0
h 157 574 0
h 161 576 0
h 167 576 0
h 171 576 0
h 175 576 0
h 179 576 0
h 181 576 0
h 187 576 0
h 189 576 0
h 1 578 0
h 5 578 0
h 11 578 0
h 15 578 0
h 19 578 0
h 21 578 0
h 27 578 0
h 31 578 0
h 33 580 0
h 37 580 0
h 43 580 0
h 47 580 0
h 51 580 0
h 53 580 0
h 59 580 0
h 63 580 0
h 65 582 0
h 69 582 0
h 75 582 0
h 79 582 0
h 83 582 0
h 85 582 0
h 91 582 0
h 95 582 0
h 97 584 0
h 101 584 0
h 107 584 0
h 111 584 0
h 115 584 0
h 117 584 0
h 123 584 0
h 127 584 0
h 129 586 0
h 133 586 0
h 139 586 0
h 143 586 0
h 147 586 0
h 149 586 0
h 155 586 0
h 159 586 0
h 161 588 0
h 165 588 0
h 171 588 0
h 175 588 0
h 179 588 0
h 181 588 0
h 187 588 0
h 191 588 0
h 1 590 0
h 7 590 0
h 11 590 0
h 15 590 0
h 19 590 0
h 21 590 0
h 25 590 0
h 29 590 0
h 33 592 0
h 39 592 0
h 43 592 0
h 47 592 0
h 51 592 0
h 53 592 0
h 57 592 0
h 61 592 0
h 65 594 0
h 71 594 0
h 75 594 0
h 79 594 0
h 83 594 0
h 85 594 0
h 89 594 0
h 93 594 0
h 97 596 0
h 103 596 0
h 107 596 0
h 111 596 0
h 115 596 0
h 117 596 0
h 121 596 0
h 125 596 0
h 129 598 0
h 135 598 0
h 139 598 0
h 143 598 0
h 147 598 0
h 149 598 0
h 153 598 0
h 157 598 0
h 161 600 0
h 167 600 0
h 171 600 0
h 175 600 0
h 179 600 0
h 181 600 0
h 185 600 0
h 189 600 0
h 3 602 0
h 7 602 0
h 9 602 0
h 15 602 0
h 19 602 0
h 23 602 0
h 27 602 0
h 29 602 0
h 35 604 0
h 39 604 0
h 41 604 0
h 47 604 0
h 51 604 0
h 55 604 0
h 59 604 0
h 61 604 0
h 67 606 0
h 71 606 0
h 73 606 0
h 79 606 0
h 83 606 0
h 87 606 0
h 91 606 0
h 93 606 0
h 99 608 0
h 103 608 0
h 105 608 0
h 111 608 0
h 115 608 0
h 119 608 0
h 123 608 0
h 125 608 0
h 131 610 0
h 135 610 0
h 137 610 0
h 143 610 0
h 147 610 0
h 151 610 0
h 155 610 0
h 157 610 0
h 163 612 0
h 167 612 0
h 169 612 0
h 175 612 0
h 179 612 0
h 183 612 0
h 187 612 0
h 189 612 0
h 3 614 0
h 5 614 0
h 9 614 0
h 15 614 0
h 17 614 0
h 21 614 0
h 27 614 0
h 31 614 0
h 35 616 0
h 37 616 0
h 41 616 0
h 47 616 0
h 49 616 0
h 53 616 0
h 59 616 0
h 63 616 0
h 67 618 0
h 69 618 0
h 73 618 0
h 79 618 0
h 81 618 0
h 85 618 0
h 91 618 0
h 95 618 0
h 99 620 0
h 101 620 0
h 105 620 0
h 111 620 0
h 113 620 0
h 117 620 0
h 123 620 0
h 127 620 0
h 131 622 0
h 133 622 0
h 137 622 0
h 143 622 0
h 145 622 0
h 149 622 0
h 155 622 0
h 159 622 0
h 163 624 0
h 165 624 0
h 169 624 0
h 175 624 0
h 177 624 0
h 181 624 0
h 187 624 0
h 191 624 0
h 3 626 0
h 7 626 0
h 11 626 0
h 15 626 0
h 19 626 0
h 21 626 0
h 27 626 0
h 29 626 0
h 35 628 0
h 39 628 0
h 43 628 0
h 47 628 0
h 51 628 0
h 53 628 0
h 59 628 0
h 61 628 0
h 67 630 0
h 71 630 0
h 75 630 0
h 79 630 0
h 83 630 0
h 85 630 0
h 91 630 0
h 93 630 0
h 99 632 0
h 103 632 0
h 107 632 0
h 111 632 0
h 115 632 0
h 117 632 0
h 123 632 0
h 125 632 0
h 131 634 0
h 135 634 0
h 139 634 0
h 143 634 0
h 147 634 0
h 149 634 0
h 155 634 0
h 157 634 0
h 163 636 0
h 167 636 0
h 171 636 0
h 175 636 0
h 179 636 0
h 181 636 0
h 187 636 0
h 189 636 0
h 1 638 0
h 7 638 0
h 9 638 0
h 15 638 0
h 19 638 0
h 23 638 0
h 25 638 0
h 29 638 0
h 33 640 0
h 39 640 0
h 41 640 0
h 47 640 0
h 51 640 0
h 55 640 0
h 57 640 0
h 61 640 0
h 65 642 0
h 71 642 0
h 73 642 0
h 79 642 0
h 83 642 0
h 87 642 0
h 89 642 0
h 93 642 0
h 97 644 0
h 103 644 0
h 105 644 0
h 111 644 0
h 115 644 0
h 119 644 0
h 121 644 0
h 125 644 0
h 129 646 0
h 135 646 0
h 137 646 0
h 143 646 0
h 147 646 0
h 151 646 0
h 153 646 0
h 157 646 0
h 161 648 0
h 167 648 0
h 169 648 0
h 175 648 0
h 179 648 0
h 183 648 0
h 185 648 0
h 189 648 0
h 1 650 0
h 5 650 0
h 11 650 0
h 15 650 0
h 19 650 0
h 23 650 0
h 27 650 0
h 31 650 0
h 33 652 0
h 37 652 0
h 43 652 0
h 47 652 0
h 51 652 0
h 55 652 0
h 59 652 0
h 63 652 0
h 65 654 0
h 69 654 0
h 75 654 0
h 79 654 0
h 83 654 0
h 87 654 0
h 91 654 0
h 95 654 0
h 97 656 0
h 101 656 0
h 107 656 0
h 111 656 0
h 115 656 0
h 119 656 0
h 123 656 0
h 127 656 0
h 129 658 0
h 133 658 0
h 139 658 0
h 143 658 0
h 147 658 0
h 151 658 0
h 155 658 0
h 159 658 0
h 161 660 0
h 165 660 0
h 171 660 0
h 175 660 0
h 179 660 0
h 183 660 0
h 187 660 0
h 191 660 0
h 3 662 0
h 7 662 0
h 11 662 0
h 15 662 0
h 17 662 0
h 21 662 0
h 25 662 0
h 31 662 0
h 35 664 0
h 39 664 0
h 43 664 0
h 47 664 0
h 49 664 0
h 53 664 0
h 57 664 0
h 63 664 0
h 67 666 0
h 71 666 0
h 75 666 0
h 79 666 0
h 81 666 0
h 85 666 0
h 89 666 0
h 95 666 0
h 99 668 0
h 103 668 0
h 107 668 0
h 111 668 0
h 113 668 0
h 117 668 0
h 121 668 0
h 127 668 0
h 131 670 0
h 135 670 0
h 139 670 0
h 143 670 0
h 145 670 0
h 149 670 0
h 153 670 0
h 159 670 0
h 163 672 0
h 167 672 0
h 171 672 0
h 175 672 0
h 177 672 0
h 181 672 0
h 185 672 0
h 191 672 0
h 193 195 197 199 201 203 0
h 205 207 209 211 213 215 0
h 217 219 221 223 225 227 0
h 229 231 233 235 237 239 0
h 241 243 245 247 249 251 0
h 253 255 257 259 261 263 0
h 265 267 269 271 273 275 0
h 277 279 281 283 285 287 0
h 289 291 293 295 297 299 0
h 301 303 305 307 309 311 0
h 313 315 317 319 321 323 0
h 325 327 329 331 333 335 0
h 337 339 341 343 345 347 0
h 349 351 353 355 357 359 0
h 361 363 365 367 369 371 0
h 373 375 377 379 381 383 0
h 385 387 389 391 393 395 0
h 397 399 401 403 405 407 0
h 409 411 413 415 417 419 0
h 421 423 425 427 429 431 0
h 433 435 437 439 441 443 0
h 445 447 449 451 453 455 0
h 457 459 461 463 465 467 0
h 469 471 473 475 477 479 0
h 481 483 485 487 489 491 0
h 493 495 497 499 501 503 0
h 505 507 509 511 513 515 0
h 517 519 521 523 525 527 0
h 529 531 533 535 537 539 0
h 541 543 545 547 549 551 0
h 553 555 557 559 561 563 0
h 565 567 569 571 573 575 0
h 577 579 581 583 585 587 0
h 589 591 593 595 597 599 0
h 601 603 605 607 609 611 0
h 613 615 617 619 621 623 0
h 625 627 629 631 633 635 0
h 637 639 641 643 645 647 0
h 649 651 653 655 657 659 0
h 661 663 665 667 669 671 0
h -1 -2 0
h -3 -4 0
h -5 -6 0
h -7 -8 0
h -9 -10 0
h -11 -12 0
h -13 -14 0
h -15 -16 0
h -17 -18 0
h -19 -20 0
h -21 -22 0
h -23 -24 0
h -25 -26 0
h -27 -28 0
h -29 -30 0
h -31 -32 0
h -33 -34 0
h -35 -36 0
h -37 -38 0
h -39 -40 0
h -41 -42 0
h -43 -44 0
h -45 -46 0
h -47 -48 0
h -49 -50 0
h -51 -52 0
h -53 -54 0
h -55 -56 0
h -57 -58 0
h -59 -60 0
h -61 -62 0
h -63 -64 0
h -65 -66 0
h -67 -68 0
h -69 -70 0
h -71 -72 0
h -73 -74 0
h -75 -76 0
h -77 -78 0
h -79 -80 0
h -81 -82 0
h -83 -84 0
h -85 -86 0
h -87 -88 0
h -89 -90 0
h -91 -92 0
h -93 -94 0
h -95 -96 0
h -97 -98 0
h -99 -100 0
h -101 -102 0
h -103 -104 0
h -105 -106 0
h -107 -108 0
h -109 -110 0
h -111 -112 0
h -113 -114 0
h -115 -116 0
h -117 -118 0
h -119 -120 0
h -121 -122 0
h -123 -124 0
h -125 -126 0
h -127 -128 0
h -129 -130 0
h -131 -132 0
h -133 -134 0
h -135 -136 0
h -137 -138 0
h -139 -140 0
h -141 -142 0
h -143 -144 0
h -145 -146 0
h -147 -148 0
h -149 -150 0
h -151 -152 0
h -153 -154 0
h -155 -156 0
h -157 -158 0
h -159 -160 0
h -161 -162 0
h -163 -164 0
h -165 -166 0
h -167 -168 0
h -169 -170 0
h -171 -172 0
h -173 -174 0
h -175 -176 0
h -177 -178 0
h -179 -180 0
h -181 -182 0
h -183 -184 0
h -185 -186 0
h -187 -188 0
h -189 -190 0
h -191 -192 0
h -193 -194 0
h -195 -196 0
h -197 -198 0
h -199 -200 0
h -201 -202 0
h -203 -204 0
h -205 -206 0
h -207 -208 0
h -209 -210 0
h -211 -212 0
h -213 -214 0
h -215 -216 0
h -217 -218 0
h -219 -220 0
h -221 -222 0
h -223 -224 0
h -225 -226 0
h -227 -228 0
h -229 -230 0
h -231 -232 0
h -233 -234 0
h -235 -236 0
h -237 -238 0
h -239 -240 0
h -241 -242 0
h -243 -244 0
h -245 -246 0
h -247 -248 0
h -249 -250 0
h -251 -252 0
h -253 -254 0
h -255 -256 0
h -257 -258 0
h -259 -260 0
h -261 -262 0
h -263 -264 0
h -265 -266 0
h -267 -268 0
h -269 -270 0
h -271 -272 0
h -273 -274 0
h -275 -276 0
h -277 -278 0
h -279 -280 0
h -281 -282 0
h -283 -284 0
h -285 -286 0
h -287 -288 0
h -289 -290 0
h -291 -292 0
h -293 -294 0
h -295 -296 0
h -297 -298 0
h -299 -300 0
h -301 -302 0
h -303 -304 0
h -305 -306 0
h -307 -308 0
h -309 -310 0
h -311 -312 0
h -313 -314 0
h -315 -316 0
h -317 -318 0
h -319 -320 0
h -321 -322 0
h -323 -324 0
h -325 -326 0
h -327 -328 0
h -329 -330 0
h -331 -332 0
h -333 -334 0
h -335 -336 0
h -337 -338 0
h -339 -340 0
h -341 -342 0
h -343 -344 0
h -345 -346 0
h -347 -348 0
h -349 -350 0
h -351 -352 0
h -353 -354 0
h -355 -356 0
h -357 -358 0
h -359 -360 0
h -361 -362 0
h -363 -364 0
h -365 -366 0
h -367 -368 0
h -369 -370 0
h -371 -372 0
h -373 -374 0
h -375 -376 0
h -377 -378 0
h -379 -380 0
h -381 -382 0
h -383 -384 0
h -385 -386 0
h -387 -388 0
h -389 -390 0
h -391 -392 0
h -393 -394 0
h -395 -396 0
h -397 -398 0
h -399 -400 0
h -401 -402 0
h -403 -404 0
h -405 -406 0
h -407 -408 0
h -409 -410 0
h -411 -412 0
h -413 -414 0
h -415 -416 0
h -417 -418 0
h -419 -420 0
h -421 -422 0
h -423 -424 0
h -425 -426 0
h -427 -428 0
h -429 -430 0
h -431 -432 0
h -433 -434 0
h -435 -436 0
h -437 -438 0
h -439 -440 0
h -441 -442 0
h -443 -444 0
h -445 -446 0
h -447 -448 0
h -449 -450 0
h -451 -452 0
h -453 -454 0
h -455 -456 0
h -457 -458 0
h -459 -460 0
h -461 -462 0
h -463 -464 0
h -465 -466 0
h -467 -468 0
h -469 -470 0
h -471 -472 0
h -473 -474 0
h -475 -476 0
h -477 -478 0
h -479 -480 0
h -481 -482 0
h -483 -484 0
h -485 -486 0
h -487 -488 0
h -489 -490 0
h -491 -492 0
h -493 -494 0
h -495 -496 0
h -497 -498 0
h -499 -500 0
h -501 -502 0
h -503 -504 0
h -505 -506 0
h -507 -508 0
h -509 -510 0
h -511 -512 0
h -513 -514 0
h -515 -516 0
h -517 -518 0
h -519 -520 0
h -521 -522 0
h -523 -524 0
h -525 -526 0
h -527 -528 0
h -529 -530 0
h -531 -532 0
h -533 -534 0
h -535 -536 0
h -537 -538 0
h -539 -540 0
h -541 -542 0
h -543 -544 0
h -545 -546 0
h -547 -548 0
h -549 -550 0
h -551 -552 0
h -553 -554 0
h -555 -556 0
h -557 -558 0
h -559 -560 0
h -561 -562 0
h -563 -564 0
h -565 -566 0
h -567 -568 0
h -569 -570 0
h -571 -572 0
h -573 -574 0
h -575 -576 0
h -577 -578 0
h -579 -580 0
h -581 -582 0
h -583 -584 0
h -585 -586 0
h -587 -588 0
h -589 -590 0
h -591 -592 0
h -593 -594 0
h -595 -596 0
h -597 -598 0
h -599 -600 0
h -601 -602 0
h -603 -604 0
h -605 -606 0
h -607 -608 0
h -609 -610 0
h -611 -612 0
h -613 -614 0
h -615 -616 0
h -617 -618 0
h -619 -620 0
h -621 -622 0
h -623 -624 0
h -625 -626 0
h -627 -628 0
h -629 -630 0
h -631 -632 0
h -633 -634 0
h -635 -636 0
h -637 -638 0
h -639 -640 0
h -641 -642 0
h -643 -644 0
h -645 -646 0
h -647 -648 0
h -649 -650 0
h -651 -652 0
h -653 -654 0
h -655 -656 0
h -657 -658 0
h -659 -660 0
h -661 -662 0
h -663 -664 0
h -665 -666 0
h -667 -668 0
h -669 -670 0
h -671 -672 0
